param set_len = 30;
param target_sum = 211868123;
param values := [1] 28094817 [2] 12033023 [3] 13279241 [4] 13787337 [5] 3764606 [6] 2138119 [7] 32025211 [8] 4408807 [9] 6770761 [10] 31462496 [11] 19485186 [12] 10779867 [13] 4618776 [14] 1137280 [15] 12764808 [16] 4166832 [17] 10640737 [18] 32468267 [19] 5540261 [20] 4301447 [21] 31962246 [22] 12779219 [23] 6694946 [24] 10344571 [25] 29128142 [26] 18359454 [27] 1648933 [28] 13793474 [29] 32735605 [30] 23712964 ;
